NAME : portcgen-29-24
COMMENT : portcgen N=29, seed=24
TYPE : TSP
DIMENSION : 29
EDGE_WEIGHT_TYPE : EUC_2D
NODE_COORD_SECTION
1 -172358 223560
2 224363 91227
3 -148817 43255
4 597640 -41912
5 -59430 54401
6 -65308 222803
7 22184 127217
8 125920 -51052
9 69266 206604
10 21791 209624
11 -105625 -356719
12 149311 -278329
13 -137628 -95778
14 152142 217200
15 -171488 -9212
16 -11764 95134
17 34532 268767
18 80296 -401706
19 249039 -14157
20 -29735 -7953
21 64269 -3201
22 -30515 -12808
23 -33335 312499
24 -75011 -210043
25 -6975 155670
26 -284500 -266105
27 -186367 -35635
28 -227020 101183
29 -61639 -159428
